p cnf 40 38
e 1 2 7 8 13 14 19 20 25 26 31 32 37 38 0
a 3 5 9 11 15 17 21 23 27 29 33 35 39 0
e 4 6 10 12 16 18 22 24 28 30 34 36 40 0
1 3 4 0
-1 -3 -4 0
3 5 6 0
-3 -5 -6 0
5 7 8 0
-5 -7 -8 0
7 9 10 0
-7 -9 -10 0
9 11 12 0
-9 -11 -12 0
11 13 14 0
-11 -13 -14 0
13 15 16 0
-13 -15 -16 0
15 17 18 0
-15 -17 -18 0
17 19 20 0
-17 -19 -20 0
19 21 22 0
-19 -21 -22 0
21 23 24 0
-21 -23 -24 0
23 25 26 0
-23 -25 -26 0
25 27 28 0
-25 -27 -28 0
27 29 30 0
-27 -29 -30 0
29 31 32 0
-29 -31 -32 0
31 33 34 0
-31 -33 -34 0
33 35 36 0
-33 -35 -36 0
35 37 38 0
-35 -37 -38 0
37 39 40 0
-37 -39 -40 0
